200
1000
263
260
260
259
258
256
254
253
252
251
249
248
246
243
243
241
239
239
238
237
235
235
232
232
227
227
225
225
223
221
220
219
217
216
216
215
214
211
211
211
208
208
208
208
207
206
206
205
203
202
197
197
195
195
194
192
192
191
190
188
188
185
182
181
181
181
180
180
179
177
176
174
172
170
169
165
165
164
163
161
159
159
158
157
154
152
149
148
148
146
144
143
142
137
137
133
132
130
130
124
123
123
121
121
119
119
112
111
110
109
108
108
105
105
104
103
102
101
99
98
98
97
96
95
95
94
93
88
87
83
81
80
79
78
78
77
77
76
75
75
74
73
72
72
71
67
66
65
64
63
58
58
57
54
54
54
53
53
53
52
52
52
50
50
49
49
49
48
47
47
46
45
45
45
43
42
39
37
37
37
36
36
36
35
34
34
31
30
29
28
28
24
24
20
20
20
19
19
17
17
